5 5
4 5 4 18 3 8 5 16 1 3 2 3 5 1 12 5 10 3 6 2 19 4 11 1 1 2 2 4 16 2 9
7 1 2 15 1 4 3 2 2 13 1 13 2 5 16 4 13 1 3 6 2 1 10 5 5 4 3 10 2 7 1 9 4 11
4 2 3 18 4 15 5 5 2 1 19 3 15 4 15 2 7 5 1 15 2 12 5 15 4 13 3 16 3 3 18 4 13 5 7
7 2 2 10 1 17 1 2 11 1 3 8 4 2 8 1 5 4 10 3 17 1 4 15 1 2 16 5 4 20 2 7 3 5 5 6 1 14
5 5 2 17 5 6 1 13 4 20 3 12 1 3 7 2 4 7 3 17 2 5 11 1 5 4 1 18 5 18 2 7 3 15